p cnf 75 375
1 -75 -56 0
1 -75 -52 0
1 -75 16 0
1 -75 51 0
1 -75 74 0
1 -74 -47 0
1 -74 -33 0
1 -74 15 0
1 -74 31 0
1 -74 70 0
1 -73 -72 0
1 -73 -37 0
1 -73 9 0
1 -73 21 0
1 -73 48 0
1 -72 -53 0
1 -72 -23 0
1 -72 2 0
1 -72 69 0
1 -71 -63 0
1 -71 -18 0
1 -71 -11 0
1 -71 4 0
1 -71 49 0
1 -70 -65 0
1 -70 -57 0
1 -70 -30 0
1 -70 47 0
1 -70 66 0
1 -69 -27 0
1 -69 -19 0
1 -69 17 0
1 -69 60 0
1 -69 63 0
1 -68 -52 0
1 -68 -16 0
1 -68 -8 0
1 -68 10 0
1 -68 57 0
1 -67 -32 0
1 -67 12 0
1 -67 37 0
1 -67 41 0
1 -67 43 0
1 -66 -39 0
1 -66 -26 0
1 -66 -24 0
1 -66 -11 0
1 -66 1 0
1 -65 -42 0
1 -65 -22 0
1 -65 -17 0
1 -65 66 0
1 -64 -13 0
1 -64 -6 0
1 -64 -3 0
1 -64 39 0
1 -64 60 0
1 -63 -62 0
1 -63 -53 0
1 -63 3 0
1 -63 8 0
1 -62 -2 0
1 -62 25 0
1 -62 32 0
1 -62 66 0
1 -61 -38 0
1 -61 -37 0
1 -61 7 0
1 -61 21 0
1 -61 68 0
1 -60 -31 0
1 -60 28 0
1 -60 29 0
1 -60 37 0
1 -60 44 0
1 -59 -55 0
1 -59 14 0
1 -59 40 0
1 -59 43 0
1 -59 46 0
1 -58 -18 0
1 -58 -1 0
1 -58 5 0
1 -58 23 0
1 -58 38 0
1 -57 -32 0
1 -57 -22 0
1 -57 64 0
1 -57 67 0
1 -56 8 0
1 -56 26 0
1 -56 47 0
1 -56 73 0
1 -55 -48 0
1 -55 -34 0
1 -55 39 0
1 -55 68 0
1 -54 -51 0
1 -54 -31 0
1 -54 -23 0
1 -54 -9 0
1 -54 67 0
1 -53 -21 0
1 -53 59 0
1 -53 69 0
1 -52 -47 0
1 -52 23 0
1 -52 62 0
1 -51 -24 0
1 -51 -3 0
1 -51 50 0
1 -51 74 0
1 -50 -34 0
1 -50 -32 0
1 -50 -4 0
1 -50 13 0
1 -50 41 0
1 -49 -47 0
1 -49 -46 0
1 -49 -15 0
1 -49 6 0
1 -49 31 0
1 -48 -32 0
1 -48 -5 0
1 -48 -1 0
1 -48 7 0
1 -47 -34 0
1 -47 6 0
1 -46 -28 0
1 -46 5 0
1 -46 29 0
1 -46 36 0
1 -45 -34 0
1 -45 -20 0
1 -45 25 0
1 -45 35 0
1 -45 38 0
1 -44 6 0
1 -44 18 0
1 -44 21 0
1 -44 32 0
1 -44 55 0
1 -43 -28 0
1 -43 3 0
1 -43 20 0
1 -43 42 0
1 -43 68 0
1 -42 -34 0
1 -42 14 0
1 -42 24 0
1 -42 53 0
1 -41 -10 0
1 -41 -6 0
1 -41 12 0
1 -41 33 0
1 -41 39 0
1 -40 -35 0
1 -40 -31 0
1 -40 -4 0
1 -40 36 0
1 -40 58 0
1 -39 -28 0
1 -39 21 0
1 -39 54 0
1 -39 71 0
1 -38 -23 0
1 -38 22 0
1 -38 45 0
1 -38 54 0
1 -37 -5 0
1 -37 7 0
1 -37 42 0
1 -36 2 0
1 -36 51 0
1 -36 59 0
1 -36 71 0
1 -36 75 0
1 -35 -29 0
1 -35 -14 0
1 -35 30 0
1 -35 70 0
1 -33 -12 0
1 -33 6 0
1 -33 51 0
1 -33 65 0
1 -32 58 0
1 -31 -7 0
1 -31 55 0
1 -30 -19 0
1 -30 -11 0
1 -30 46 0
1 -30 75 0
1 -29 -12 0
1 -29 -4 0
1 -29 7 0
1 -29 55 0
1 -28 -22 0
1 -28 55 0
1 -27 4 0
1 -27 18 0
1 -27 37 0
1 -27 39 0
1 -26 -23 0
1 -26 23 0
1 -26 32 0
1 -26 64 0
1 -25 9 0
1 -25 14 0
1 -25 17 0
1 -25 61 0
1 -25 72 0
1 -24 52 0
1 -24 58 0
1 -24 65 0
1 -23 11 0
1 -22 -19 0
1 -22 1 0
1 -21 24 0
1 -21 45 0
1 -21 57 0
1 -21 59 0
1 -20 -5 0
1 -20 15 0
1 -20 31 0
1 -20 64 0
1 -19 20 0
1 -19 56 0
1 -18 34 0
1 -18 46 0
1 -18 68 0
1 -17 -3 0
1 -17 2 0
1 -17 28 0
1 -17 73 0
1 -16 11 0
1 -16 41 0
1 -16 63 0
1 -16 75 0
1 -15 30 0
1 -15 34 0
1 -15 44 0
1 -15 61 0
1 -14 36 0
1 -14 45 0
1 -14 48 0
1 -14 63 0
1 -13 5 0
1 -13 18 0
1 -13 19 0
1 -13 22 0
1 -12 4 0
1 -12 20 0
1 -12 52 0
1 -11 64 0
1 -11 75 0
1 -10 5 0
1 -10 26 0
1 -10 36 0
1 -10 42 0
1 -9 6 0
1 -9 13 0
1 -9 22 0
1 -9 49 0
1 -8 15 0
1 -8 34 0
1 -8 40 0
1 -8 48 0
1 -7 -5 0
1 -7 16 0
1 -7 47 0
1 -7 54 0
1 -6 38 0
1 -6 53 0
1 -6 71 0
1 -5 -2 0
1 -4 9 0
1 -4 30 0
1 -3 39 0
1 -3 50 0
1 -2 14 0
1 -2 38 0
1 -2 60 0
1 -1 12 0
1 -1 19 0
1 -1 72 0
1 1 28 0
1 1 73 0
1 1 75 0
1 2 64 0
1 2 65 0
1 3 7 0
1 3 27 0
1 3 35 0
1 4 57 0
1 4 60 0
1 5 46 0
1 8 47 0
1 8 59 0
1 8 60 0
1 9 17 0
1 9 70 0
1 10 22 0
1 10 23 0
1 10 42 0
1 10 53 0
1 11 44 0
1 11 57 0
1 11 71 0
1 12 17 0
1 12 22 0
1 13 20 0
1 13 25 0
1 13 26 0
1 14 45 0
1 15 37 0
1 15 46 0
1 16 32 0
1 16 48 0
1 16 72 0
1 17 62 0
1 18 41 0
1 18 43 0
1 19 33 0
1 19 41 0
1 19 62 0
1 20 51 0
1 21 30 0
1 23 56 0
1 24 35 0
1 24 37 0
1 24 67 0
1 25 52 0
1 25 54 0
1 26 29 0
1 26 48 0
1 27 44 0
1 27 52 0
1 27 68 0
1 27 73 0
1 28 38 0
1 28 63 0
1 29 40 0
1 29 74 0
1 30 69 0
1 31 35 0
1 31 59 0
1 32 65 0
1 33 36 0
1 33 40 0
1 33 66 0
1 34 44 0
1 34 58 0
1 35 55 0
1 40 56 0
1 42 49 0
1 43 49 0
1 43 61 0
1 45 72 0
1 47 71 0
1 49 50 0
1 50 65 0
1 50 74 0
1 51 56 0
1 52 57 0
1 53 61 0
1 53 62 0
1 54 58 0
1 56 69 0
1 61 73 0
1 62 66 0
1 63 67 0
1 67 69 0
1 70 72 0
1 70 74 0
